service_id,monday,tuesday,wednesday,thursday,friday,saturday,sunday,start_date,end_date
1,1,1,1,1,1,1,0,20251107,20260807
3,1,1,1,1,1,0,0,20251107,20260807
4,0,0,0,0,0,1,0,20251107,20260807
10,1,1,1,1,1,0,0,20251107,20260807
11,0,0,0,0,0,1,0,20251107,20260807
20,0,0,0,0,0,0,1,20251107,20260807
60,1,1,1,1,1,0,0,20251107,20260807
76,0,0,0,1,0,0,0,20251107,20260807
92,1,1,1,1,1,1,0,20251107,20260807
102,1,1,1,1,1,0,0,20251107,20260807
118,0,0,0,0,0,0,1,20251107,20260807
140,0,0,0,0,0,1,0,20251107,20260807
187,0,0,0,0,0,1,0,20251107,20260807
188,0,0,0,0,0,0,1,20251107,20260807
189,0,1,1,0,0,0,0,20251107,20260807
218,1,1,1,1,1,1,0,20251107,20260807
225,1,1,1,1,1,0,0,20251107,20260807
241,0,0,0,0,0,0,1,20251107,20260807
267,0,0,0,0,0,1,0,20251107,20260807
268,0,0,0,0,0,0,1,20251107,20260807
490,0,1,0,1,1,1,1,20251107,20251231
491,1,0,1,0,0,1,0,20251107,20251231
492,0,0,1,1,1,1,1,20251107,20251231
493,1,1,1,1,1,1,1,20251107,20251231
494,1,0,0,1,1,1,1,20251107,20251231
495,1,1,1,1,1,1,1,20251107,20251231
496,0,0,0,0,0,1,0,20251107,20251231
497,1,1,1,1,1,1,1,20251107,20251231
505,1,1,1,1,1,1,0,20251224,20251225
506,1,1,1,1,1,1,0,20251227,20251230
507,0,0,0,0,0,0,1,20251227,20251230
508,0,0,0,0,0,0,1,20251222,20251223
509,1,1,1,1,1,1,0,20251222,20251223
515,0,0,0,0,0,0,1,20251107,20260807
519,1,1,1,1,1,1,0,20251231,20260101
520,1,1,1,1,1,1,0,20260101,20260102
521,0,0,0,0,0,0,1,20260101,20260102
534,0,0,0,0,0,0,1,20251107,20251221
535,0,0,0,0,0,1,0,20251107,20251221
536,1,1,1,1,1,0,0,20251107,20251221
550,1,1,1,1,1,0,0,20251107,20251221
560,1,1,1,1,1,0,0,20260103,20261003
561,0,0,0,0,0,1,0,20260103,20261003
562,1,1,1,1,1,0,0,20260103,20261003
563,0,0,0,0,0,0,1,20260103,20261003
642,0,0,0,0,0,0,1,20251107,20260807
895,0,0,0,0,1,0,0,20251107,20260807
1033,1,0,1,1,1,0,0,20251107,20260807
1047,0,1,0,0,0,0,0,20251107,20260807
1322,0,0,0,0,0,0,1,20251107,20251220
1326,0,0,0,0,0,1,0,20251107,20251220
1327,1,1,1,1,1,0,0,20251107,20251220
1378,1,0,0,0,0,0,0,20251107,20260807
2402,0,0,0,0,0,1,0,20251107,20251108
2403,1,1,1,1,1,0,0,20251107,20251108
2406,0,0,0,0,0,1,0,20251109,20260809
2408,1,1,1,1,1,0,0,20251109,20260809
2556,0,0,0,0,0,0,1,20251107,20251108
2557,0,0,0,0,0,0,1,20251109,20260809
2686,0,0,0,0,0,0,1,20251107,20251115
2688,1,1,1,1,1,0,0,20251107,20251115
2690,0,0,0,0,0,1,0,20251107,20251115
2934,0,0,1,0,0,0,0,20251107,20260807
3198,1,1,1,1,1,0,0,20251107,20260807
3199,1,1,1,1,1,1,1,20251107,20260807
3210,1,1,1,1,1,1,0,20251107,20260807
3234,1,1,1,1,0,0,0,20251107,20260807
3575,1,1,1,1,1,0,0,20251107,20251223
3576,1,1,1,1,1,0,0,20251107,20251223
3577,0,0,0,0,0,1,0,20251107,20251223
3600,0,0,0,0,0,1,0,20260102,20261002
3601,1,1,1,1,1,0,0,20260102,20261002
3602,1,1,1,1,1,0,0,20260102,20261002
3603,0,0,0,0,0,1,0,20251227,20251230
3604,1,1,1,1,1,0,0,20251227,20251230
3605,1,1,1,1,1,0,0,20251224,20251225
3607,1,1,1,1,1,0,0,20260102,20261002
3609,1,1,1,1,1,0,0,20251107,20251223
3616,1,1,1,1,1,0,0,20260102,20261002
3626,1,1,1,1,1,0,0,20251107,20260807
3633,0,0,0,0,0,1,0,20251107,20260807
3635,1,1,1,1,1,0,0,20251107,20260807
3636,1,1,1,1,1,0,0,20251107,20260807
3650,0,0,0,0,1,0,0,20251107,20260807
3670,1,1,1,1,1,0,0,20251107,20251201
3672,0,0,0,0,0,0,1,20251107,20251201
3673,0,0,0,0,0,1,0,20251107,20251201
3710,0,0,0,0,1,0,0,20251107,20251201
3855,1,1,1,0,0,0,0,20251107,20260807
4030,0,0,0,0,0,1,0,20251107,20260807
4114,0,1,0,0,0,0,0,20251107,20260807
4164,1,1,1,1,1,0,0,20251107,20260807
4174,1,1,1,1,1,0,0,20251224,20251224
4175,1,1,1,1,1,0,0,20251229,20260102
4176,1,1,1,1,1,0,0,20251231,20251231
4179,1,1,1,1,1,0,0,20260105,20261005
4188,0,0,1,0,0,0,0,20251224,20251231
4272,1,0,0,1,0,0,0,20251107,20260807
4444,1,1,1,1,1,0,0,20251107,20251223
4636,1,1,1,1,1,0,0,20260105,20261005
4688,0,1,0,0,1,0,0,20251107,20260807
4777,0,0,0,0,0,1,0,20251107,20251116
4778,1,1,1,1,1,0,0,20251107,20251116
4782,0,0,0,0,0,1,0,20251117,20260817
4786,1,1,1,1,1,0,0,20251117,20260817
4797,0,0,0,0,0,1,0,20251107,20251129
4807,0,0,0,0,0,0,1,20251201,20260901
4809,0,0,0,0,0,0,1,20251107,20251129
4850,1,1,1,1,1,0,0,20251107,20260807
4972,1,1,1,1,1,1,0,20260102,20261002
4977,1,1,1,1,1,1,0,20251107,20251223
5230,1,1,1,1,1,1,1,20251107,20251123
5231,1,1,1,1,1,0,0,20251107,20251123
5233,0,0,0,0,0,1,0,20251107,20251123
5236,1,1,1,1,1,0,0,20251107,20260807
6097,0,0,0,0,1,0,0,20251107,20260807
6106,1,1,1,1,1,0,0,20251107,20260807
6161,1,1,1,1,1,0,0,20251107,20260717
6162,0,1,0,0,1,0,0,20251107,20260807
6174,0,0,0,0,0,0,1,20251107,20251221
6792,0,0,0,1,0,0,0,20251107,20260807
6815,1,1,1,1,0,0,0,20251107,20260807
8651,0,0,1,0,0,0,0,20251221,20260921
8652,1,1,0,0,0,0,0,20251221,20260921
8653,0,0,0,0,0,1,0,20251221,20260921
8654,0,0,0,0,0,1,0,20251228,20260928
8655,0,0,1,0,0,0,0,20251228,20260928
8656,1,1,0,0,1,0,0,20251228,20260928
8666,0,0,0,0,0,0,1,20251221,20260921
8672,0,0,0,0,0,0,1,20251228,20260928
9353,0,0,0,0,0,1,0,20251130,20260830
9362,0,0,0,0,0,0,1,20251130,20260830
9363,0,0,0,0,1,0,0,20251130,20260830
11081,0,0,0,0,0,0,1,20251221,20260921
11082,0,0,0,0,0,1,0,20251221,20260921
11084,1,1,1,1,1,0,0,20251130,20260830
11086,0,0,0,0,0,1,0,20251130,20260830
11221,1,1,1,1,0,0,0,20251130,20260830
11277,0,0,0,0,0,0,1,20251130,20260830
13190,0,0,0,0,0,0,1,20251221,20260921
15432,0,0,0,0,0,1,0,20251107,20251223
16167,1,1,1,1,1,0,0,20251107,20260807
16209,1,1,1,1,1,0,0,20251107,20251129
16486,0,0,0,0,1,1,0,20251107,20260807
18330,1,1,1,1,0,0,0,20251107,20251220
18331,0,0,0,0,1,0,0,20251107,20251220
18658,0,1,0,1,0,0,0,20251107,20260807
19705,1,1,1,1,1,0,0,20251123,20260119
19706,0,0,0,0,0,0,1,20251123,20260119
19707,0,0,0,0,0,1,0,20251123,20260119
19712,0,0,0,0,0,1,0,20251107,20251122
19713,1,1,1,1,1,0,0,20251107,20251122
19714,0,0,0,0,0,0,1,20251107,20251122
19917,1,1,1,1,1,0,0,20251107,20260725
20212,0,0,0,0,0,1,0,20251107,20260807
20213,0,0,0,0,0,1,0,20251107,20260807
20237,0,0,0,0,0,1,0,20251107,20260619
20238,1,1,1,1,1,0,0,20251107,20260619
20257,1,1,1,1,1,0,0,20251107,20260726
20258,0,0,0,0,0,1,0,20251107,20260726
20259,0,0,0,0,0,0,1,20251107,20260726
20496,1,1,1,1,1,0,0,20251107,20260717
21082,0,0,0,1,1,0,0,20251107,20260807
21302,0,0,0,0,0,0,1,20260104,20260201
21303,1,1,1,1,1,0,0,20260104,20260201
21304,0,0,0,0,0,1,0,20260104,20260201
21307,1,1,1,1,1,0,0,20251107,20251130
21308,0,0,0,0,0,1,0,20251107,20251130
21309,0,0,0,0,0,0,1,20251107,20251130
21327,0,0,0,0,0,1,0,20251201,20251224
21328,0,0,0,0,0,0,1,20251201,20251224
21329,1,1,1,1,1,0,0,20251201,20251224
21332,0,0,0,0,0,1,0,20251226,20260103
21333,1,1,0,0,1,0,0,20251226,20260103
21334,0,0,0,0,0,0,1,20251226,20260103
21338,0,0,0,0,0,1,0,20260202,20260405
21339,0,0,0,0,0,0,1,20260202,20260405
21340,1,1,1,1,1,0,0,20260202,20260405
21343,1,1,1,1,1,0,0,20251107,20260807
21344,1,1,1,1,1,0,0,20251107,20260807
21347,1,1,1,1,1,0,0,20251107,20260807
21348,1,1,1,1,1,0,0,20251107,20260807
21382,1,1,1,1,1,0,0,20260112,20260329
21383,0,0,0,0,0,0,1,20260112,20260329
21384,0,0,0,0,0,1,0,20260112,20260329
21389,1,1,1,1,1,0,0,20251201,20251214
21390,0,0,0,0,0,0,1,20251201,20251214
21392,0,0,0,0,0,1,0,20251201,20251214
21413,0,0,0,1,1,1,1,20251107,20251221
21463,1,1,1,1,1,1,0,20251107,20260807
21533,1,1,1,1,1,1,1,21250703,21250928
21811,0,0,0,0,1,0,0,20251107,20260807
21827,1,1,1,1,1,0,0,20251107,20260807
21860,1,1,1,1,0,0,0,20251107,20260807
23317,1,1,1,1,1,0,0,20260102,20261002
23320,1,1,1,1,1,0,0,20260103,20261003
23326,1,1,1,1,1,0,0,20260103,20261003
23351,1,1,1,1,1,0,0,20251231,20260101
23356,1,1,1,1,1,0,0,20251107,20251221
23536,1,1,1,1,0,0,0,20251107,20251221
23538,0,0,0,0,1,0,0,20251107,20251221
24030,1,0,1,0,0,0,0,20251107,20260807
24195,1,1,1,1,1,0,0,20251107,20260807
24989,1,1,1,1,1,0,0,20251107,20260807
25266,1,1,1,1,0,0,0,20251107,20260807
25267,0,0,0,0,1,0,0,20251107,20260807
25269,0,0,0,0,0,1,0,20251107,20260807
25293,0,0,0,0,0,1,0,20251201,20260901
25294,0,0,0,0,1,0,0,20251201,20260901
25295,1,1,1,1,0,0,0,20251201,20260901
25297,1,1,1,1,0,0,0,20251107,20251130
25298,0,0,0,0,1,0,0,20251107,20251130
25517,1,1,1,0,1,0,0,20251107,20260807
25522,1,1,1,0,0,0,0,20251107,20260807
25543,0,0,0,1,0,0,0,20251201,20260901
25544,1,1,1,0,0,0,0,20251201,20260901
25666,0,0,0,0,0,1,0,20251107,20251107
25737,0,0,0,0,0,0,1,20251107,20251107
25955,1,1,1,1,0,0,0,20251107,20251107
25958,0,0,0,0,1,0,0,20251107,20251107
27313,1,1,1,1,1,1,0,20251107,20251220
27318,1,1,0,1,1,1,0,20251221,20260921
27320,1,1,0,1,1,0,0,20251221,20260921
27321,1,1,0,1,0,0,0,20251221,20251221
27323,0,0,0,0,0,1,0,20251221,20251221
27324,1,1,0,1,1,0,0,20251221,20251221
27325,0,0,0,0,1,0,0,20251221,20251221
27326,0,0,0,0,0,0,1,20251221,20251221
27328,0,0,0,0,0,1,0,20251222,20260102
27330,0,0,0,0,1,0,0,20251222,20260102
27331,0,0,0,0,0,1,0,20251222,20260922
27332,0,0,0,0,0,0,1,20251222,20260922
27333,0,0,0,0,1,0,0,20251222,20260922
27334,1,1,1,1,0,0,0,20251222,20260922
27335,0,0,1,0,0,0,0,20251222,20260922
27336,1,1,1,1,1,0,0,20251222,20260922
27341,1,1,1,1,1,1,0,20251107,20251221
27346,1,1,1,1,1,1,0,20260103,20261003
27376,0,0,0,0,0,0,1,20251222,20260102
27453,1,1,1,1,1,0,0,20251221,20260921
27460,0,0,0,1,0,0,0,20251222,20260102
27487,0,0,0,0,1,0,0,20251221,20260921
27489,1,1,0,1,0,0,0,20251221,20260921
27618,1,1,1,1,1,0,0,20251201,20251220
27619,0,0,0,0,0,1,0,20251201,20251220
27719,0,0,0,1,1,1,0,20251107,20251221
27720,0,0,0,1,1,1,0,20260103,20261003
27736,0,0,0,0,0,0,1,20251116,20251220
27738,1,1,1,1,1,0,0,20251116,20251220
27739,0,0,0,0,0,1,0,20251116,20251220
27817,1,1,0,1,1,0,0,20251107,20251220
31093,1,0,1,1,0,0,0,20251107,20260807
31096,0,0,0,0,0,1,0,20251107,20260807
31097,0,1,0,1,0,0,0,20251107,20260807
31098,0,1,0,1,0,0,0,20251107,20260801
31099,0,1,0,0,1,0,0,20251107,20260807
31647,1,1,1,1,1,0,0,20251107,20251129
31764,1,1,1,1,1,0,0,20251130,20260830
31956,1,1,1,1,1,0,0,20251107,20260807
31980,1,1,1,1,1,0,0,20251107,20260807
32010,1,1,1,1,1,0,0,20251107,20260807
32062,1,1,1,1,1,0,0,20251107,20260807
32147,1,1,1,1,1,0,0,20251107,20260807
32287,1,1,1,1,1,0,0,20251107,20260807
32295,1,1,1,1,1,0,0,20251107,20260807
32311,1,1,1,1,1,0,0,20251107,20260807
32447,1,1,1,1,1,0,0,20251107,20260807
32449,1,1,1,1,1,0,0,20251107,20260807
32456,1,1,1,1,1,0,0,20251107,20260807
32528,1,1,1,1,1,0,0,20251107,20260807
32544,1,1,1,1,1,0,0,20251107,20260807
32667,0,0,0,1,0,1,0,20251107,20260807
32706,1,1,1,1,1,0,0,20251107,20260807
32713,1,1,1,1,1,0,0,20251107,20260807
32803,1,1,1,1,1,0,0,20251107,20260807
32926,1,1,1,1,0,0,0,20251107,20260807
32936,1,1,1,1,1,0,0,20251107,20260807
32939,0,0,0,0,1,0,0,20251107,20260807
33006,0,0,0,1,0,0,0,20251107,20260807
33134,1,1,1,1,1,0,0,20251107,20260807
33504,1,1,1,0,0,0,0,20251107,20260111
33505,1,1,1,1,1,1,1,20251107,20260111
33506,1,1,1,1,1,1,1,20251107,20260111
33507,1,1,1,1,1,0,1,20251107,20260111
33508,1,1,1,1,1,1,1,20251107,20260111
33512,1,1,1,1,1,1,1,20251107,20260111
33515,1,1,1,1,1,1,1,20251107,20260331
33516,1,1,1,1,1,1,1,20251107,20260331
33517,1,1,1,1,1,1,1,20251107,20260331
33518,1,1,0,0,0,0,1,20251107,20260331
33519,1,1,1,1,1,1,1,20251107,20260331
33520,1,1,1,1,1,0,1,20251107,20260331
33521,1,1,1,1,1,1,1,20251107,20260331
33522,1,1,1,0,0,0,0,20251107,20260331
33560,0,0,0,0,0,0,1,20251107,20260111
33700,1,1,1,1,1,1,1,20251107,20260111
33702,1,0,0,1,1,1,1,20251107,20260111
33705,1,0,0,1,1,0,1,20251107,20260111
33708,1,0,0,1,1,1,1,20251107,20260111
33713,0,0,1,0,0,0,0,20251107,20260111
33914,1,1,1,1,1,1,1,20251107,20260331
33927,0,0,0,0,0,1,1,20251107,20260331
33928,1,1,1,1,1,0,0,20251107,20260331
33929,1,1,1,1,1,0,0,20251107,20260331
33930,1,1,1,1,1,1,1,20251107,20260331
33931,0,0,0,0,0,0,1,20251107,20260331
33932,0,0,0,0,0,1,1,20251107,20260331
33933,1,1,0,0,0,0,0,20251107,20260331
33935,1,1,1,1,1,0,0,20251107,20260331
33938,0,0,0,0,0,1,1,20251107,20260331
33950,1,1,0,0,1,1,1,20251107,20260111
33953,1,1,0,0,1,0,1,20251107,20260111
33956,1,1,1,1,1,1,1,20251107,20260111
33958,1,1,0,1,1,1,1,20251107,20260111
33965,1,1,1,1,1,1,1,20251107,20260331
34132,1,1,1,1,1,1,1,20251107,20260111
34163,0,0,1,1,1,1,1,20251107,20260111
34164,0,0,1,1,1,1,1,20251107,20260111
34165,0,0,1,1,1,0,1,20251107,20260111
34167,1,0,0,1,1,1,1,20251107,20260111
34168,0,0,1,1,1,1,1,20251107,20260111
34171,1,0,0,0,0,0,0,20251107,20260111
34200,0,0,0,0,1,0,0,20251107,20260807
34202,1,1,1,1,1,0,0,20251107,20260807
35447,0,0,0,0,0,0,1,20251107,20251223
35527,1,1,1,1,1,1,1,20251107,20260807
35937,1,1,1,1,0,0,0,20251107,20251221
35938,0,0,0,0,1,0,0,20251107,20251221
35967,1,1,0,1,0,0,0,20251107,20251221
35973,0,0,0,0,1,0,0,20251107,20251221
35975,0,0,1,0,1,0,0,20251107,20251221
35993,0,0,1,0,0,0,0,20251107,20251221
36000,1,1,0,1,1,0,0,20251107,20251221
36006,0,0,1,0,0,0,0,20251107,20251221
36053,1,1,0,1,1,0,0,20251107,20251221
36060,1,1,1,1,1,0,0,20251107,20251221
36064,0,0,1,0,0,0,0,20251107,20251221
36069,1,1,0,1,0,0,0,20251107,20251221
36793,1,0,0,0,1,1,0,20251107,20251231
36807,0,0,0,0,0,0,1,20251107,20251231
37171,1,1,1,1,1,0,0,20251107,20251223
39606,0,0,0,0,0,1,0,20251107,20260807
39714,0,0,0,0,0,1,0,20251108,20260808
39715,0,0,0,0,1,0,0,20251108,20260808
39716,1,1,1,1,0,0,0,20251108,20260808
39733,0,0,0,0,0,0,1,20251108,20260808
39797,1,1,1,1,1,0,0,20251107,20260807
